(set-logic QF_S)
(declare-fun _var_0xINPUT_187196_() String)
(declare-fun __woorpje_diseq_pref0_() String)
(declare-fun __woorpje_diseq_suf_l0_() String)
(declare-fun __woorpje_diseq_suf_r0_() String)
(assert (=(str.++  "ceFSAF9PRo" "")(str.++ __woorpje_diseq_pref0_  "P" __woorpje_diseq_suf_l0_  "")) )
(assert (=(str.++ _var_0xINPUT_187196_  "")(str.++ __woorpje_diseq_pref0_  "o" __woorpje_diseq_suf_r0_  "")) )
(check-sat)
